10
-1 49 19 56 98 3 24 8 44 9
89 -1 95 85 93 43 23 87 14 3
48 58 -1 80 96 98 81 89 98 9
57 72 22 -1 92 38 79 90 57 58
91 15 88 56 -1 2 34 72 55 28
46 62 86 75 33 -1 42 44 16 81
98 22 51 21 99 57 -1 92 89 75
12 10 3 69 61 88 1 -1 55 23
2 85 82 85 88 26 17 57 -1 32
69 54 21 89 76 29 68 92 25 -1